SCIP Status        : problem creation / modification
Total Time         :       0.01
  reading          :       0.01
Original Problem   :
  Problem name     : main4.zpl
  Variables        : 710 (710 binary, 0 integer, 0 implicit integer, 0 continuous)
  Constraints      : 0 initial, 780 maximal
  Objective        : minimize, 710 non-zeros (abs.min = 0.0034, abs.max = 5700)
